language ESSENCE' 1.0

letting jobs = 102
letting horizon = 811
letting resourcesRenew = 2
letting resourcesNonrenew = 2
letting resourceLimits = [44, 39, 570, 602]
letting successors = [[2, 3, 4, 5, 6, 7, 8, 9, 10, 11, 12, 13, 14, 15, 16, 17, 18, 19, 20, 21, 22, 25, 28, 29, 32, 38, 56], [70, 63, 61, 60, 59, 57, 54, 53, 49, 48, 45, 42, 31, 27, 24], [101, 100, 98, 97, 83, 73, 72, 70, 64, 61, 59, 57, 55, 53, 52, 48, 45, 44, 43, 31], [101, 70, 57, 55, 52, 50, 48, 47, 43, 42, 30, 23], [101, 99, 95, 94, 85, 82, 73, 72, 71, 63, 54, 50, 47, 40, 37, 36], [97, 94, 93, 85, 82, 73, 63, 61, 59, 58, 53, 47, 46, 45, 37, 35], [100, 99, 98, 97, 92, 81, 71, 68, 66, 63, 62, 60, 54, 53, 45, 33], [99, 97, 95, 94, 83, 63, 57, 48, 37, 35, 34], [98, 87, 69, 67, 66, 63, 57, 53, 52, 51, 48, 47, 39], [101, 98, 94, 88, 68, 64, 62, 48, 46, 45, 31], [99, 98, 95, 91, 83, 71, 70, 68, 63, 54, 53, 46, 41, 35], [99, 98, 95, 87, 72, 70, 57, 53, 48, 47, 26], [101, 99, 93, 92, 91, 89, 85, 84, 81, 70, 68, 66, 64, 62, 60, 58, 54, 52, 45], [98, 95, 93, 90, 89, 80, 68, 62, 59, 55, 51, 46, 41], [89, 48, 45, 42, 31], [100, 95, 90, 89, 87, 83, 78, 66, 65, 63, 59, 52, 48, 37], [99, 98, 91, 90, 87, 84, 83, 80, 79, 78, 77, 68, 67, 66, 60, 52, 50, 48], [99, 92, 91, 90, 89, 88, 85, 84, 81, 73, 72, 69, 58, 54, 49, 42], [100, 99, 96, 93, 92, 91, 89, 86, 85, 73, 72, 67, 66, 65, 62, 57, 45], [95, 94, 93, 90, 89, 88, 85, 80, 79, 69, 66, 62, 61, 58, 54, 46], [101, 97, 96, 92, 89, 83, 81, 80, 79, 78, 77, 71, 67, 65, 57, 54, 53], [93, 92, 89, 87, 86, 84, 82, 81, 80, 75, 69, 68, 66, 62, 55, 53], [97, 96, 92, 91, 90, 87, 85, 84, 81, 80, 79, 69, 66, 65, 62, 59, 54], [98, 97, 95, 91, 89, 86, 85, 75, 72, 67, 65, 52, 47], [101, 99, 98, 97, 96, 94, 92, 91, 89, 85, 84, 81, 80, 79, 67, 58, 53], [100, 97, 93, 91, 90, 89, 88, 86, 83, 82, 81, 80, 79, 77, 75, 69, 68, 67, 66, 65], [101, 99, 96, 93, 92, 90, 84, 83, 82, 81, 80, 77, 76, 75, 66, 65, 55], [97, 94, 89, 87, 86, 85, 84, 82, 81, 80, 79, 77, 69, 68, 67, 66, 60], [99, 94, 90, 89, 88, 87, 86, 82, 81, 80, 79, 78, 75, 67, 66, 62], [95, 93, 88, 84, 82, 81, 80, 79, 78, 71, 68, 66, 62, 60], [99, 95, 91, 85, 84, 82, 80, 79, 76, 71, 69, 66, 50], [98, 94, 90, 83, 81, 79, 78, 73, 61, 48], [101, 89, 87, 83, 82, 77, 75, 69, 67, 48], [100, 98, 88, 87, 84, 82, 81, 79, 78, 76, 70, 60], [92, 89, 87, 84, 80, 79, 76, 75, 69, 66, 65], [97, 93, 89, 83, 78, 77, 76, 75, 70, 68, 66], [98, 96, 91, 84, 81, 80, 79, 75, 70, 67], [91, 85, 84, 81, 80, 78, 76, 75, 74, 62], [94, 89, 85, 84, 83, 79, 77, 76, 75, 65], [93, 90, 84, 79, 77, 75, 70, 69, 66], [97, 92, 87, 84, 79, 75, 52], [100, 95, 94, 86, 83, 82, 80, 76, 68], [99, 92, 89, 87, 80, 78, 75, 74, 67], [92, 88, 85, 81, 80, 77, 76, 68, 65], [95, 90, 87, 80, 79, 78, 77, 76, 74], [86, 84, 81, 78, 77, 67, 65], [81, 80, 78, 74, 62], [96, 93, 86, 85, 76, 74], [86, 82, 80, 77, 76], [92, 81, 75, 65], [97, 91, 81, 70], [94, 88, 82, 74], [90, 88, 76, 74], [86, 76, 75, 74], [91, 85, 79, 78], [98, 85, 82, 77], [82, 75, 68], [77, 75, 65], [88, 76, 75], [75, 65], [75, 65], [83, 77], [84, 77], [79, 74], [74], [74], [76], [74], [78], [74], [87], [79], [77], [102], [102], [102], [102], [102], [102], [102], [102], [102], [102], [102], [102], [102], [102], [102], [102], [102], [102], [102], [102], [102], [102], [102], [102], [102], [102], [102], [102], []]
letting durations = [[0], [1, 5, 7], [1, 3, 6], [4, 8, 10], [5, 7, 10], [4, 6, 9], [2, 7, 10], [6, 7, 10], [5, 6, 10], [4, 6, 8], [3, 3, 6], [2, 6, 9], [2, 3, 4], [5, 6, 7], [2, 3, 7], [6, 7, 8], [2, 4, 9], [1, 2, 10], [3, 4, 7], [1, 2, 6], [3, 3, 5], [2, 3, 10], [4, 7, 9], [2, 2, 3], [2, 9, 10], [6, 7, 9], [3, 3, 7], [4, 8, 9], [3, 4, 9], [4, 6, 9], [2, 4, 5], [4, 5, 5], [4, 5, 10], [7, 9, 10], [1, 5, 9], [4, 7, 10], [1, 2, 8], [1, 6, 10], [2, 7, 10], [3, 8, 8], [2, 4, 9], [2, 4, 10], [5, 5, 6], [8, 8, 9], [1, 7, 8], [2, 5, 9], [7, 8, 10], [2, 2, 6], [4, 9, 10], [1, 4, 6], [1, 4, 10], [1, 1, 10], [2, 9, 10], [2, 4, 5], [3, 4, 6], [4, 9, 10], [3, 6, 9], [5, 9, 9], [1, 3, 6], [4, 8, 9], [3, 7, 10], [2, 3, 8], [1, 7, 8], [1, 3, 10], [5, 7, 10], [6, 7, 8], [1, 2, 8], [2, 4, 7], [4, 6, 7], [2, 8, 8], [6, 7, 8], [7, 7, 8], [4, 4, 7], [1, 2, 4], [1, 4, 8], [1, 6, 9], [3, 3, 4], [1, 3, 7], [2, 3, 4], [1, 2, 5], [3, 5, 9], [1, 2, 4], [5, 9, 10], [1, 6, 9], [1, 2, 10], [2, 8, 10], [7, 9, 9], [1, 4, 9], [1, 2, 7], [1, 1, 6], [3, 6, 10], [5, 8, 10], [7, 8, 10], [3, 6, 7], [5, 6, 7], [1, 8, 10], [7, 8, 10], [4, 8, 9], [3, 5, 7], [3, 4, 8], [3, 4, 7], [0]]
letting resourceUsage = [[[0, 0, 0, 0]], [[6, 0, 10, 8], [0, 5, 10, 6], [3, 0, 10, 6]], [[0, 5, 7, 5], [5, 0, 6, 5], [0, 4, 5, 5]], [[0, 8, 3, 8], [9, 0, 3, 6], [9, 0, 3, 1]], [[4, 0, 7, 6], [2, 0, 3, 5], [0, 5, 2, 5]], [[0, 9, 6, 6], [0, 5, 3, 6], [1, 0, 2, 6]], [[9, 0, 4, 5], [7, 0, 2, 4], [7, 0, 2, 3]], [[0, 5, 6, 7], [2, 0, 5, 5], [0, 2, 5, 5]], [[0, 2, 3, 10], [3, 0, 3, 4], [0, 2, 3, 2]], [[8, 0, 8, 10], [7, 0, 7, 6], [0, 5, 6, 4]], [[5, 0, 8, 8], [0, 2, 7, 6], [4, 0, 6, 3]], [[0, 7, 10, 5], [2, 0, 6, 4], [0, 5, 6, 3]], [[6, 0, 9, 6], [6, 0, 5, 4], [6, 0, 5, 3]], [[6, 0, 8, 7], [0, 6, 5, 6], [0, 5, 4, 5]], [[8, 0, 7, 6], [6, 0, 6, 6], [6, 0, 6, 5]], [[0, 10, 7, 9], [0, 8, 7, 6], [6, 0, 7, 3]], [[7, 0, 10, 8], [0, 4, 7, 4], [0, 4, 5, 3]], [[3, 0, 8, 6], [2, 0, 6, 6], [0, 4, 6, 6]], [[10, 0, 5, 7], [6, 0, 4, 5], [6, 0, 3, 5]], [[0, 4, 7, 5], [5, 0, 6, 4], [4, 0, 5, 3]], [[0, 4, 8, 7], [6, 0, 8, 3], [5, 0, 7, 2]], [[0, 2, 9, 10], [4, 0, 8, 7], [0, 2, 7, 4]], [[0, 2, 7, 7], [0, 2, 6, 7], [6, 0, 3, 7]], [[0, 7, 6, 7], [5, 0, 6, 6], [2, 0, 6, 5]], [[5, 0, 1, 5], [0, 6, 1, 5], [2, 0, 1, 5]], [[10, 0, 8, 5], [9, 0, 7, 5], [9, 0, 7, 4]], [[0, 7, 8, 5], [5, 0, 6, 5], [5, 0, 3, 5]], [[0, 3, 5, 8], [0, 3, 4, 7], [0, 3, 1, 7]], [[8, 0, 9, 5], [8, 0, 7, 2], [0, 7, 5, 2]], [[0, 5, 7, 2], [0, 4, 5, 2], [0, 3, 2, 1]], [[0, 8, 5, 9], [0, 5, 5, 7], [5, 0, 3, 2]], [[0, 4, 6, 9], [4, 0, 6, 8], [0, 3, 6, 8]], [[8, 0, 6, 3], [0, 4, 4, 3], [7, 0, 4, 3]], [[8, 0, 8, 6], [7, 0, 3, 4], [0, 2, 1, 4]], [[0, 10, 7, 8], [6, 0, 5, 8], [5, 0, 3, 7]], [[10, 0, 2, 9], [4, 0, 2, 4], [3, 0, 2, 1]], [[0, 9, 8, 7], [0, 7, 8, 6], [0, 6, 8, 6]], [[3, 0, 8, 4], [3, 0, 5, 2], [0, 2, 2, 2]], [[0, 8, 7, 7], [0, 8, 6, 4], [2, 0, 2, 3]], [[0, 8, 4, 1], [0, 7, 4, 1], [2, 0, 4, 1]], [[0, 3, 8, 6], [0, 3, 7, 5], [5, 0, 7, 4]], [[8, 0, 7, 3], [6, 0, 5, 3], [0, 7, 2, 3]], [[5, 0, 6, 7], [0, 6, 4, 6], [0, 6, 4, 5]], [[0, 9, 4, 9], [4, 0, 2, 7], [0, 3, 1, 7]], [[0, 8, 4, 9], [6, 0, 4, 9], [6, 0, 4, 8]], [[8, 0, 1, 7], [8, 0, 1, 5], [8, 0, 1, 2]], [[0, 3, 4, 7], [0, 2, 3, 7], [0, 2, 3, 6]], [[8, 0, 1, 3], [0, 6, 1, 3], [3, 0, 1, 3]], [[9, 0, 6, 8], [8, 0, 6, 4], [0, 3, 6, 4]], [[0, 9, 9, 3], [0, 8, 6, 2], [6, 0, 5, 2]], [[0, 8, 4, 6], [0, 8, 3, 5], [0, 6, 3, 4]], [[3, 0, 5, 9], [0, 3, 5, 8], [0, 3, 3, 6]], [[4, 0, 6, 1], [4, 0, 4, 1], [4, 0, 3, 1]], [[0, 6, 6, 4], [5, 0, 5, 4], [2, 0, 4, 3]], [[0, 6, 5, 6], [2, 0, 4, 5], [2, 0, 2, 4]], [[7, 0, 7, 8], [0, 5, 5, 8], [0, 5, 5, 7]], [[0, 8, 9, 8], [8, 0, 5, 6], [0, 3, 3, 5]], [[0, 7, 7, 7], [0, 6, 6, 6], [2, 0, 6, 4]], [[0, 3, 6, 5], [7, 0, 6, 4], [0, 1, 5, 2]], [[0, 9, 6, 3], [0, 8, 4, 2], [0, 7, 4, 1]], [[10, 0, 9, 9], [0, 4, 8, 6], [0, 3, 7, 2]], [[9, 0, 7, 8], [0, 3, 4, 4], [0, 1, 2, 1]], [[5, 0, 5, 9], [0, 6, 4, 9], [2, 0, 4, 7]], [[0, 10, 3, 9], [0, 9, 3, 7], [0, 9, 3, 6]], [[9, 0, 5, 6], [8, 0, 3, 5], [0, 5, 3, 5]], [[9, 0, 6, 8], [0, 5, 5, 4], [9, 0, 2, 3]], [[0, 2, 5, 6], [0, 2, 5, 5], [4, 0, 3, 5]], [[10, 0, 5, 1], [0, 8, 5, 1], [5, 0, 5, 1]], [[5, 0, 10, 6], [4, 0, 8, 4], [4, 0, 6, 3]], [[10, 0, 7, 6], [8, 0, 4, 3], [0, 8, 2, 3]], [[7, 0, 4, 5], [0, 5, 3, 4], [5, 0, 3, 3]], [[0, 3, 3, 7], [1, 0, 3, 5], [1, 0, 3, 3]], [[0, 7, 6, 5], [5, 0, 5, 4], [0, 7, 4, 4]], [[0, 9, 8, 7], [0, 5, 6, 6], [8, 0, 5, 5]], [[0, 8, 7, 6], [0, 7, 5, 5], [0, 5, 3, 5]], [[10, 0, 3, 9], [0, 5, 2, 4], [0, 3, 2, 3]], [[0, 8, 5, 7], [9, 0, 2, 5], [9, 0, 2, 2]], [[0, 3, 9, 10], [5, 0, 4, 9], [0, 1, 2, 9]], [[0, 5, 9, 9], [9, 0, 6, 8], [8, 0, 6, 6]], [[1, 0, 9, 5], [0, 3, 6, 4], [1, 0, 5, 3]], [[9, 0, 6, 10], [0, 7, 5, 7], [8, 0, 5, 5]], [[0, 9, 7, 10], [0, 7, 3, 5], [0, 6, 1, 2]], [[7, 0, 5, 6], [0, 5, 5, 6], [0, 5, 1, 6]], [[9, 0, 9, 9], [8, 0, 8, 8], [0, 1, 5, 5]], [[2, 0, 7, 3], [2, 0, 6, 2], [2, 0, 5, 2]], [[0, 9, 10, 10], [0, 7, 8, 7], [5, 0, 7, 6]], [[1, 0, 3, 9], [0, 8, 3, 9], [1, 0, 1, 9]], [[4, 0, 7, 8], [3, 0, 6, 6], [2, 0, 4, 6]], [[0, 5, 9, 7], [8, 0, 8, 3], [0, 4, 8, 1]], [[0, 3, 9, 6], [4, 0, 9, 5], [4, 0, 9, 4]], [[4, 0, 9, 8], [4, 0, 7, 5], [0, 2, 5, 3]], [[8, 0, 3, 8], [0, 2, 2, 5], [0, 2, 2, 4]], [[0, 6, 2, 7], [5, 0, 1, 6], [0, 4, 1, 6]], [[7, 0, 5, 2], [7, 0, 5, 1], [7, 0, 3, 1]], [[0, 9, 6, 7], [0, 7, 5, 5], [0, 7, 5, 4]], [[0, 6, 3, 6], [0, 6, 3, 5], [0, 4, 3, 4]], [[0, 9, 7, 7], [0, 8, 6, 6], [5, 0, 4, 5]], [[9, 0, 7, 8], [7, 0, 4, 6], [4, 0, 4, 3]], [[8, 0, 4, 10], [7, 0, 3, 6], [0, 3, 3, 3]], [[0, 3, 4, 5], [4, 0, 4, 4], [0, 2, 4, 3]], [[0, 6, 8, 9], [0, 3, 6, 7], [0, 3, 5, 4]], [[0, 0, 0, 0]]]
